NAME lp_typeD_4793
OBJSENSE MAX
ROWS
 N  OBJ
 L  c0      
 L  c1      
 L  c2      
 G  c3      
 G  c4      
 G  c5      
 L  c_key_upper
 G  c_key_lower
 G  _chain_constr_1
 G  _chain_constr_2
 G  _chain_constr_3
 G  _chain_constr_4
 G  _chain_constr_5
 G  _chain_cycle
COLUMNS
    x0        OBJ       1.3193706819952249e+00
    x0        c0        1.6278566611781409e+00
    x0        c1        1.1061115576629228e+00
    x0        c2        6.9551444027908982e-01
    x0        c3        1.8649002445549407e+00
    x0        c4        9.7432433349337633e-01
    x0        c5        1.3332932174698153e+00
    x0        c_key_upper  1.1830405181788604e+00
    x0        c_key_lower  1.1830405181788604e+00
    x1        OBJ       1.17513085990839
    x1        c0        1.5914071518290733e+00
    x1        c1        1.0169492014406361e+00
    x1        c2        1.5486032416849218e+00
    x1        c3        1.2450107200881093e+00
    x1        c4        1.6870867606092612e+00
    x1        c5        1.4032201006092122e+00
    x1        c_key_upper  1.2702674902451943e+00
    x1        c_key_lower  1.2702674902451943e+00
    x2        OBJ       7.1959296261235683e-01
    x2        c0        1.2284268547912836e+00
    x2        c1        7.2619063112875670e-01
    x2        c2        7.1455833171395455e-01
    x2        c3        6.8283957383405514e-01
    x2        c4        8.0495761273195554e-01
    x2        c5        1.2740267067190236e+00
    x2        c_key_upper  1.2508589447403964e+00
    x2        c_key_lower  1.2508589447403964e+00
    x3        OBJ       7.6320442341330785e-01
    x3        c0        8.5893513261129573e-01
    x3        c1        1.0052030703577601e+00
    x3        c2        1.6105406822336703e+00
    x3        c3        1.7003628274482276e+00
    x3        c4        0.828965949391454
    x3        c5        1.7557623087959979e+00
    x3        c_key_upper  1.2608126169468923e+00
    x3        c_key_lower  1.2608126169468923e+00
    x4        OBJ       7.1359421478868446e-01
    x4        c0        1.0096337955278889e+00
    x4        c1        1.0745524729167168e+00
    x4        c2        1.5118862518304714e+00
    x4        c3        5.9311583116930588e-01
    x4        c4        1.9808198984101417e+00
    x4        c5        1.6145527390640637e+00
    x4        c_key_upper  1.7139574892307641e+00
    x4        c_key_lower  1.7139574892307641e+00
    _chain_var_0  _chain_constr_1  -1
    _chain_var_0  _chain_cycle  1
    _chain_var_1  _chain_constr_1  1
    _chain_var_1  _chain_constr_2  -1
    _chain_var_2  _chain_constr_2  1
    _chain_var_2  _chain_constr_3  -1
    _chain_var_3  _chain_constr_3  1
    _chain_var_3  _chain_constr_4  -1
    _chain_var_4  _chain_constr_4  1
    _chain_var_4  _chain_constr_5  -1
    _chain_var_5  _chain_constr_5  1
    _chain_var_5  _chain_cycle  -1
RHS
    RHS1      c0        3.1611977262413721e+01
    RHS1      c1        1.9806033235919635e+01
    RHS1      c2        2.9384882812542543e+01
    RHS1      c3        1.0920377265127179e+01
    RHS1      c4        6.3567890884950931e+00
    RHS1      c5        8.9620079755468325e+00
    RHS1      c_key_upper  3.3394685296710534e+01
    RHS1      c_key_lower  1.6697342648355267e+01
    RHS1      _chain_constr_1  10
    RHS1      _chain_constr_2  10
    RHS1      _chain_constr_3  10
    RHS1      _chain_constr_4  10
    RHS1      _chain_constr_5  10
    RHS1      _chain_cycle  10
BOUNDS
 UP BND1      x0        10
 UP BND1      x1        10
 UP BND1      x2        10
 UP BND1      x3        10
 UP BND1      x4        10
 UP BND1      _chain_var_0  100
 UP BND1      _chain_var_1  100
 UP BND1      _chain_var_2  100
 UP BND1      _chain_var_3  100
 UP BND1      _chain_var_4  100
 UP BND1      _chain_var_5  100
ENDATA
